\ LP format - for model browsing. Use MPS format to capture full model detail.
Minimize
  obj
Subject To
 constr(0): x1 + x2 <= 10
 constr(1): x1 + 2 x2 >= 3
 constr(2): x1 + x2 - obj = -0
Bounds
End
